0 40 43
1 46 46
2 40 46
3 27 47
4 45 46
5 35 45
6 34 41
7 32 42
8 16 38
9 31 40
10 36 36
11 22 37
12 18 37
13 30 31
14 11 27
15 26 26
16 17 23
17 15 23
18 19 20
19 16 17
20 17 18
21 12 18
22 12 16
23 8 14
24 11 11
25 12 13
26 9 12
27 12 13
28 1 9
29 5 6
30 3 4
31 1 3
32 2 2
33 1 1

